p cnf 224 404
e 1 2 3 4 5 6 7 8 9 10 11 12 13 14 15 16 17 18 19 20 21 22 23 24 25 26 27 28 29 30 31 32 33 34 35 36 37 38 39 40 41 42 43 44 45 46 47 48 49 50 51 52 53 54 55 56 57 58 59 60 61 62 63 64 65 66 67 68 69 70 71 72 73 74 75 76 77 78 79 80 81 82 83 84 85 86 87 88 89 90 91 92 93 94 95 96 97 98 99 100 101 102 103 104 105 106 107 108 109 110 111 112 113 114 115 116 117 118 119 120 121 122 123 124 125 126 127 128 129 130 131 132 133 134 135 136 137 138 139 140 141 142 143 144 145 146 147 148 149 150 151 152 153 154 155 156 157 158 159 160 161 162 163 164 165 166 167 168 169 170 171 172 173 174 175 176 177 178 179 180 181 182 183 184 185 186 187 188 189 190 191 192 193 194 195 196 197 198 199 200 201 202 203 204 205 206 207 208 209 210 211 212 213 214 215 216 217 218 219 220 221 222 223 224 0
-9 0
-22 0
146 0
151 0
-185 0
-47 0
-6 0
-93 0
-183 0
-30 0
-49 0
-84 0
-135 0
-176 0
-224 0
-24 0
-25 0
-54 0
-27 0
-23 0
-38 0
-3 0
-51 0
-90 0
-114 0
145 0
153 0
-17 0
-10 0
-189 0
-26 0
-56 0
-99 0
-120 0
-193 0
-2 0
-46 0
-192 0
-178 0
-50 0
-57 0
-123 0
-177 0
139 0
-8 0
-102 0
-21 0
-28 0
-34 0
-40 0
-4 0
-16 0
138 0
155 0
-182 0
-156 0
-7 0
144 0
-186 0
-14 0
-43 0
-45 0
-32 0
-39 0
-13 0
-18 0
-42 0
147 0
-11 0
-53 0
-105 0
-190 0
152 0
-181 0
-195 0
-33 0
-12 0
-15 0
137 0
141 0
142 0
-29 0
-35 0
1 0
-132 0
-37 0
-81 0
-187 0
-19 0
-31 0
-191 0
-180 0
-58 0
-194 0
-55 0
149 0
-48 0
-52 0
-108 0
150 0
136 0
-44 0
148 0
-20 0
-129 0
-5 0
-96 0
143 0
154 0
-87 0
-117 0
-184 0
-179 0
196 0
-36 0
-41 0
-126 0
-188 0
-111 0
140 0
-79 80 0
79 -80 0
-82 83 0
82 -83 0
-85 86 0
85 -86 0
-88 89 0
88 -89 0
-91 92 0
91 -92 0
-94 95 0
94 -95 0
-97 98 0
97 -98 0
-100 101 0
100 -101 0
-103 104 0
103 -104 0
-106 107 0
106 -107 0
-109 110 0
109 -110 0
-112 113 0
112 -113 0
-115 116 0
115 -116 0
-118 119 0
118 -119 0
-121 122 0
121 -122 0
-124 125 0
124 -125 0
-127 128 0
127 -128 0
-130 131 0
130 -131 0
-133 134 0
133 -134 0
59 -80 0
59 -83 0
59 -86 0
59 -89 0
59 -92 0
59 -95 0
59 -98 0
59 -101 0
59 -104 0
59 -107 0
59 -110 0
59 -113 0
59 -116 0
59 -119 0
59 -122 0
59 -125 0
59 -128 0
59 -131 0
59 -134 0
60 -80 0
61 -83 0
62 -86 0
63 -89 0
64 -92 0
65 -95 0
66 -98 0
67 -101 0
68 -104 0
69 -107 0
70 -110 0
71 -113 0
72 -116 0
73 -119 0
74 -122 0
75 -125 0
76 -128 0
77 -131 0
78 -134 0
197 -80 -83 0
-197 80 0
-197 83 0
198 -92 -95 -98 0
-198 92 0
-198 95 0
-198 98 0
199 -107 -110 0
-199 107 0
-199 110 0
200 -113 -116 -119 0
-200 113 0
-200 116 0
-200 119 0
201 -122 -125 -128 0
-201 122 0
-201 125 0
-201 128 0
202 -131 -134 0
-202 131 0
-202 134 0
203 -86 -92 0
-203 86 0
-203 92 0
204 -113 -122 -131 0
-204 113 0
-204 122 0
-204 131 0
205 -80 -89 -95 0
-205 80 0
-205 89 0
-205 95 0
206 -116 -125 -134 0
-206 116 0
-206 125 0
-206 134 0
207 -119 -128 0
-207 119 0
-207 128 0
208 -89 -98 0
-208 89 0
-208 98 0
209 -113 -125 0
-209 113 0
-209 125 0
210 -83 -89 -92 0
-210 83 0
-210 89 0
-210 92 0
211 -119 -125 0
-211 119 0
-211 125 0
212 -80 -101 -116 0
-212 80 0
-212 101 0
-212 116 0
213 -83 -119 0
-213 83 0
-213 119 0
214 -86 -104 -122 0
-214 86 0
-214 104 0
-214 122 0
215 -92 -131 0
-215 92 0
-215 131 0
216 -95 -107 -134 0
-216 95 0
-216 107 0
-216 134 0
217 -98 -110 0
-217 98 0
-217 110 0
218 -104 -131 0
-218 104 0
-218 131 0
219 -92 -104 -113 0
-219 92 0
-219 104 0
-219 113 0
220 -101 -119 0
-220 101 0
-220 119 0
221 -92 -107 0
-221 92 0
-221 107 0
222 -83 -101 -113 0
-222 83 0
-222 101 0
-222 113 0
223 -98 -107 -131 0
-223 98 0
-223 107 0
-223 131 0
197 198 199 200 201 202 203 204 205 206 207 208 209 210 211 212 213 214 215 216 217 218 219 220 221 222 223 0
-60 157 0
60 -157 0
-61 158 0
-157 158 0
61 -158 157 0
-61 -157 0
-62 159 0
-158 159 0
62 -159 158 0
-62 -158 0
-63 160 0
-159 160 0
63 -160 159 0
-63 -159 0
-64 161 0
-160 161 0
64 -161 160 0
-64 -160 0
-65 162 0
-161 162 0
65 -162 161 0
-65 -161 0
-66 163 0
-162 163 0
66 -163 162 0
-66 -162 0
-67 164 0
-163 164 0
67 -164 163 0
-67 -163 0
-68 165 0
-164 165 0
68 -165 164 0
-68 -164 0
-69 166 0
-165 166 0
69 -166 165 0
-69 -165 0
-70 167 0
-166 167 0
70 -167 166 0
-70 -166 0
-71 168 0
-167 168 0
71 -168 167 0
-71 -167 0
-72 169 0
-168 169 0
72 -169 168 0
-72 -168 0
-73 170 0
-169 170 0
73 -170 169 0
-73 -169 0
-74 171 0
-170 171 0
74 -171 170 0
-74 -170 0
-75 172 0
-171 172 0
75 -172 171 0
-75 -171 0
-76 173 0
-172 173 0
76 -173 172 0
-76 -172 0
-77 174 0
-173 174 0
77 -174 173 0
-77 -173 0
-78 175 0
-174 175 0
78 -175 174 0
-78 -174 0
-59 175 0
-60 80 0
-60 59 0
-61 83 0
-61 59 0
-62 86 0
-62 59 0
-63 89 0
-63 59 0
-64 92 0
-64 59 0
-65 95 0
-65 59 0
-66 98 0
-66 59 0
-67 101 0
-67 59 0
-68 104 0
-68 59 0
-69 107 0
-69 59 0
-70 110 0
-70 59 0
-71 113 0
-71 59 0
-72 116 0
-72 59 0
-73 119 0
-73 59 0
-74 122 0
-74 59 0
-75 125 0
-75 59 0
-76 128 0
-76 59 0
-77 131 0
-77 59 0
-78 134 0
-78 59 0
